50
11902

230 427
441 494
490 118
991 28
11 604
573 545
891 69
684 510
782 427
621 371
57 536
832 858
242 639
567 174
371 991
591 649
629 604
399 273
751 770
136 92
28 850
780 126
466 146
417 554
306 622
599 482
901 578
288 725
813 932
142 368
824 865
563 394
865 460
111 923
973 783
834 932
516 981
825 171
530 440
738 387
129 79
693 623
128 785
117 548
534 889
624 218
354 1000
586 621
571 143
642 617
